 $CONTRL COORD=UNIQUE UNITS=ANGS MAXIT=200 QMTTOL=1.e-5 
  MPLEVL=2 ICUT=20 ITOL=30 NPRINT=-5 ISPHER=1 $END
 $SYSTEM MWORDS=100 MEMDDI=100 PARALL=.TRUE. $END
 $SCF DIRSCF=.TRUE. DAMP=.TRUE. EXTRAP=.TRUE. $END
 $BASIS GBASIS=CCT $END
 $GUESS GUESS=MOREAD $END
 $DATA
C8H10 poly4 appkernel
C1 1
H      1.0     0.00000   0.24400  -1.50072 
H      1.0     0.00000  -0.24400   8.90972 
C      6.0     0.00000  -0.32417  -0.58578 
C      6.0     0.00000   0.32417   0.58578 
H      1.0     0.00000  -1.40116  -0.59030 
H      1.0     0.00000   1.40116   0.59030 
C      6.0     0.00000  -0.32417   1.88388 
C      6.0     0.00000   0.32417   3.05545 
H      1.0     0.00000  -1.40116   1.87937 
H      1.0     0.00000   1.40116   3.05996 
C      6.0     0.00000  -0.32417   4.35355 
C      6.0     0.00000   0.32417   5.52512 
H      1.0     0.00000  -1.40116   4.34903 
H      1.0     0.00000   1.40116   5.52963 
C      6.0     0.00000  -0.32417   6.82321 
C      6.0     0.00000   0.32417   7.99478 
H      1.0     0.00000  -1.40116   6.81870 
H      1.0     0.00000   1.40116   7.99930 
 $END
 $DATA  
--- CLOSED SHELL ORBITALS --- GENERATED AT Mon Sep 13 11:10:07 2010
C8H10 poly4 appkernel                                                           
E(RHF)=     -308.8078307750, E(NUC)=  298.6090226575,   11 ITERS
 $VEC   
 1  1 1.75614928E-05 4.08274012E-04-4.21546037E-05 0.00000000E+00 8.03148234E-06
 1  2-1.06362075E-05 0.00000000E+00-1.22640242E-04 9.47149974E-05 1.98085478E-05
 1  3 1.47755109E-05-6.38869046E-06 0.00000000E+00 0.00000000E+00 1.17026071E-06
 1  4 1.75695298E-05 4.08293599E-04-4.21720415E-05 0.00000000E+00-8.03067712E-06
 1  5 1.06380513E-05 0.00000000E+00 1.22674877E-04-9.46946087E-05 1.98144601E-05
 1  6 1.47818191E-05-6.39683771E-06 0.00000000E+00 0.00000000E+00 1.16750691E-06
 1  7 5.93566861E-03 2.02908544E-04 2.29329414E-04 8.33824094E-04 0.00000000E+00
 1  8-4.44309786E-05 3.55690576E-05 0.00000000E+00 7.23392976E-04 3.14830536E-04
 1  9 0.00000000E+00 3.20795687E-04 2.26794317E-04-2.25744691E-05-2.54842148E-05
 1 10 2.37999280E-05 0.00000000E+00 0.00000000E+00 7.77007628E-06-4.35109911E-05
 1 11-3.96668608E-05-3.99525468E-04 0.00000000E+00 0.00000000E+00 5.04282669E-04
 1 12 0.00000000E+00-1.05746738E-04-1.60600910E-05-3.18447853E-05 2.42020124E-05
 1 13 0.00000000E+00 1.22789471E-05 0.00000000E+00-1.93640992E-05 0.00000000E+00
 1 14 8.65337496E-02 5.26245727E-04 4.20788752E-03-1.26744447E-03 0.00000000E+00
 1 15 8.02965704E-05 1.14116637E-04 0.00000000E+00-6.23951174E-04 5.24786835E-04
 1 16 0.00000000E+00 1.00441038E-04 4.92826997E-04 3.59325681E-05 6.16899161E-05
 1 17 1.71942729E-04 0.00000000E+00 0.00000000E+00 1.01809557E-05 4.37055333E-04
 1 18 1.59784969E-03-4.88786943E-04 0.00000000E+00 0.00000000E+00-6.19001314E-04
 1 19 0.00000000E+00 2.50222540E-04 4.98282075E-06 5.55621974E-05 9.38443923E-05
 1 20 0.00000000E+00 5.63847882E-05 0.00000000E+00 1.07501596E-04 0.00000000E+00
 1 21-2.86126901E-05 3.59875227E-04 1.34181916E-04 0.00000000E+00-6.77132818E-06
 1 22-2.14141357E-06 0.00000000E+00 1.67018313E-04 1.55134836E-04-2.07252185E-05
 1 23 3.14883248E-06-1.28175186E-05 0.00000000E+00 0.00000000E+00 2.19534620E-05
 1 24-5.07197003E-06-1.03143020E-03 1.34781213E-04 0.00000000E+00 2.67773577E-05
 1 25 4.23569930E-06 0.00000000E+00 3.93696511E-04 1.25927884E-04-1.49465855E-05
 1 26-5.54009331E-05 6.94694013E-06 0.00000000E+00 0.00000000E+00-7.70541410E-06
 1 27 2.26271575E-01-1.56368164E-04 1.00305675E-02 2.80533109E-03 0.00000000E+00
 1 28 1.23722796E-04 2.58298085E-04 0.00000000E+00-8.16523302E-04-1.09558281E-03
 1 29 0.00000000E+00 2.30065193E-04 6.35172417E-04 4.27572534E-06 2.34298102E-04
 1 30 3.15801651E-04 0.00000000E+00 0.00000000E+00-4.39937750E-05 2.35263027E-04
 1 31 2.15123974E-03-2.36891328E-03 0.00000000E+00 0.00000000E+00 4.79800446E-04
 1 32 0.00000000E+00-1.44102011E-04 2.08172288E-04 1.53733851E-04 2.12125878E-04
 1 33 0.00000000E+00 1.66989528E-04 0.00000000E+00 1.50442181E-04 0.00000000E+00
 1 34 6.47357542E-01 3.65228444E-04 3.03455713E-02-4.38936912E-03 0.00000000E+00
 1 35-1.70243530E-05 5.73452001E-04 0.00000000E+00 7.98901407E-04-1.74923884E-03
 1 36 0.00000000E+00 1.51260762E-03 1.41720387E-03 3.20266337E-04 9.36786776E-04
 1 37 1.00149209E-03 0.00000000E+00 0.00000000E+00 6.06317505E-05 2.50739586E-03
 1 38 6.49367832E-03 7.64086852E-04 0.00000000E+00 0.00000000E+00 1.97805037E-04
 1 39 0.00000000E+00 5.52806733E-04 4.30780457E-04-1.37758068E-04 3.13290867E-04
 1 40 0.00000000E+00 2.44997065E-04 0.00000000E+00-3.51010698E-04 0.00000000E+00
 1 41-9.75112192E-06-2.39738891E-03-9.62095370E-05 0.00000000E+00-1.29177751E-04
 1 42 2.31207922E-05 0.00000000E+00-1.05568851E-03 8.43357968E-05 6.50597544E-06
 1 43-2.19184703E-04 6.23786034E-05 0.00000000E+00 0.00000000E+00-1.33290028E-06
 1 44 2.47023843E-04-5.77090362E-03-6.57283415E-05 0.00000000E+00 2.00752378E-04
 1 45 1.46870199E-05 0.00000000E+00 2.32579649E-03-6.12765414E-05 1.42228502E-04
 1 46-3.44309906E-04 1.85640417E-04 0.00000000E+00 0.00000000E+00 2.72531969E-05
 1 47 6.47558631E-01 3.65212383E-04 3.03552635E-02-4.39345962E-03 0.00000000E+00
 1 48 1.69778993E-05-5.73506500E-04 0.00000000E+00-7.99244667E-04 1.74982202E-03
 1 49 0.00000000E+00-1.51342051E-03-1.41659123E-03 3.20465903E-04 9.37176789E-04
 1 50 1.00183795E-03 0.00000000E+00 0.00000000E+00 6.06471011E-05 2.50856447E-03
 1 51 6.49582840E-03 7.65611473E-04 0.00000000E+00 0.00000000E+00 1.98211072E-04
 1 52 0.00000000E+00-5.53038528E-04-4.30869618E-04 1.37786404E-04-3.13314407E-04
 1 53 0.00000000E+00-2.45015725E-04 0.00000000E+00 3.51218137E-04 0.00000000E+00
 1 54 2.26305453E-01-1.56612776E-04 1.00318961E-02 2.80680113E-03 0.00000000E+00
 1 55-1.23804314E-04-2.58401859E-04 0.00000000E+00 8.17098482E-04 1.09651821E-03
 1 56 0.00000000E+00-2.29942773E-04-6.35504986E-04 4.24239565E-06 2.34316003E-04
 1 57 3.15794186E-04 0.00000000E+00 0.00000000E+00-4.40164704E-05 2.35078625E-04
 1 58 2.15135426E-03-2.36948567E-03 0.00000000E+00 0.00000000E+00 4.79586303E-04
 1 59 0.00000000E+00 1.44007207E-04-2.08313159E-04-1.53800120E-04-2.12186256E-04
 1 60 0.00000000E+00-1.67056131E-04 0.00000000E+00-1.50491919E-04 0.00000000E+00
 1 61 2.47081863E-04-5.77247345E-03-6.57031698E-05 0.00000000E+00-2.00820794E-04
 1 62-1.46850397E-05 0.00000000E+00-2.32643024E-03 6.12692016E-05 1.42257799E-04
 1 63-3.44412072E-04 1.85690059E-04 0.00000000E+00 0.00000000E+00 2.72381410E-05
 1 64-9.71633039E-06-2.39801304E-03-9.63595310E-05 0.00000000E+00 1.29194751E-04
 1 65-2.31234751E-05 0.00000000E+00 1.05594946E-03-8.42785496E-05 6.53453646E-06
 1 66-2.19216826E-04 6.24027257E-05 0.00000000E+00 0.00000000E+00-1.34717380E-06
 1 67 8.65834034E-02 5.26236678E-04 4.21023217E-03-1.26785555E-03 0.00000000E+00
 1 68-8.02927869E-05-1.14185772E-04 0.00000000E+00 6.23784987E-04-5.24514070E-04
 1 69 0.00000000E+00-1.00470227E-04-4.92747453E-04 3.59686216E-05 6.17726615E-05
 1 70 1.72039145E-04 0.00000000E+00 0.00000000E+00 1.01914160E-05 4.37290104E-04
 1 71 1.59847723E-03-4.88914381E-04 0.00000000E+00 0.00000000E+00-6.18945380E-04
 1 72 0.00000000E+00-2.50271982E-04-5.02153318E-06-5.55437470E-05-9.38966835E-05
 1 73 0.00000000E+00-5.64172624E-05 0.00000000E+00-1.07482209E-04 0.00000000E+00
 1 74 5.93936131E-03 2.02952771E-04 2.29498225E-04 8.33900441E-04 0.00000000E+00
 1 75 4.44273528E-05-3.56051957E-05 0.00000000E+00-7.23426423E-04-3.14684371E-04
 1 76 0.00000000E+00-3.20825684E-04-2.26805594E-04-2.25763637E-05-2.54898786E-05
 1 77 2.38009420E-05 0.00000000E+00 0.00000000E+00 7.76626183E-06-4.35257313E-05
 1 78-3.95326406E-05-3.99665956E-04 0.00000000E+00 0.00000000E+00 5.04351294E-04
 1 79 0.00000000E+00 1.05752320E-04 1.60198214E-05 3.18407585E-05-2.42290035E-05
 1 80 0.00000000E+00-1.22966051E-05 0.00000000E+00 1.93684641E-05 0.00000000E+00
 1 81-5.07084287E-06-1.03196138E-03 1.34791616E-04 0.00000000E+00-2.67989160E-05
 1 82-4.24086633E-06 0.00000000E+00-3.93929818E-04-1.25902617E-04-1.49474114E-05
 1 83-5.54434128E-05 6.96068096E-06 0.00000000E+00 0.00000000E+00-7.70166857E-06
 1 84-2.86180769E-05 3.59771190E-04 1.34208073E-04 0.00000000E+00 6.77424994E-06
 1 85 2.14206681E-06 0.00000000E+00-1.66976276E-04-1.55165390E-04-2.07295358E-05
 1 86 3.14155628E-06-1.28221748E-05 0.00000000E+00 0.00000000E+00 2.19572815E-05
 2  1 3.21148047E-05 3.78374266E-04-9.53069497E-05 0.00000000E+00 9.03264566E-06
 2  2-1.46033434E-05 0.00000000E+00-1.82572534E-04-2.52490445E-06 2.99896551E-05
 2  3 2.32684906E-05-3.69109061E-05 0.00000000E+00 0.00000000E+00 1.93700612E-06
 2  4-3.21303695E-05-3.78154576E-04 9.53169127E-05 0.00000000E+00 9.04296863E-06
 2  5-1.46077693E-05 0.00000000E+00-1.82534286E-04-2.66341360E-06-3.00072606E-05
 2  6-2.32746060E-05 3.69376430E-05 0.00000000E+00 0.00000000E+00-1.95075059E-06
 2  7 2.26590215E-02-2.23420034E-05 8.63831944E-04 1.14942945E-03 0.00000000E+00
 2  8 6.52852165E-05 2.33458767E-04 0.00000000E+00-1.76854593E-04-9.84936517E-04
 2  9 0.00000000E+00 1.08389667E-04 1.42173685E-04-3.21587147E-05-1.16701090E-05
 2 10 4.80728535E-06 0.00000000E+00 0.00000000E+00-3.57616823E-05-1.73191726E-04
 2 11 2.37099587E-04-1.05265180E-03 0.00000000E+00 0.00000000E+00 3.45296234E-04
 2 12 0.00000000E+00 3.31507580E-05 2.48558244E-04 5.94057288E-05 1.83049393E-04
 2 13 0.00000000E+00 1.32826470E-04 0.00000000E+00 1.43222163E-05 0.00000000E+00
 2 14 3.10089856E-01 1.18003506E-06 1.45690050E-02-2.08211646E-03 0.00000000E+00
 2 15-1.69652939E-05 4.00089154E-04 0.00000000E+00 8.16046611E-04-1.37794515E-03
 2 16 0.00000000E+00 5.09382186E-04 1.23844312E-04 1.84454168E-04 4.91424826E-04
 2 17 5.31506727E-04 0.00000000E+00 0.00000000E+00 4.72534806E-05 1.30580775E-03
 2 18 3.32651130E-03 2.24243650E-04 0.00000000E+00 0.00000000E+00 1.75107390E-04
 2 19 0.00000000E+00 2.60843096E-04 2.71747838E-04-8.48081834E-05 2.54893094E-04
 2 20 0.00000000E+00 1.86188866E-04 0.00000000E+00-1.65906558E-04 0.00000000E+00
 2 21-1.38487803E-05-4.24676771E-04 7.82403507E-06 0.00000000E+00-2.40604940E-05
 2 22 7.75652635E-06 0.00000000E+00-1.89413861E-04 1.30190636E-04-2.64074429E-06
 2 23-4.24158727E-05 1.45655984E-06 0.00000000E+00 0.00000000E+00 1.34341429E-05
 2 24 9.78319300E-05-3.02225962E-03 1.44097410E-05 0.00000000E+00 1.09479978E-04
 2 25 1.76415424E-05 0.00000000E+00 1.26537323E-03-4.98957295E-05 5.79969144E-05
 2 26-1.98905042E-04 9.55630897E-05 0.00000000E+00 0.00000000E+00 1.89374828E-05
 2 27 3.13428324E-01-6.01833138E-04 1.40681782E-02 1.61282749E-03 0.00000000E+00
 2 28 2.28470799E-04 4.29573636E-05 0.00000000E+00-2.07209984E-03-1.56111993E-03
 2 29 0.00000000E+00-9.75594505E-04 3.18248174E-04 5.32923976E-05 4.08911003E-04
 2 30 3.20653204E-04 0.00000000E+00 0.00000000E+00-2.86728206E-05 4.97030463E-04
 2 31 2.40215569E-03-6.60397450E-04 0.00000000E+00 0.00000000E+00-4.94386185E-04
 2 32 0.00000000E+00 9.69995297E-05 1.75923334E-04 2.34452392E-04 2.98367216E-05
 2 33 0.00000000E+00 7.39303108E-05 0.00000000E+00 2.81609326E-04 0.00000000E+00
 2 34 5.31690053E-01-3.05478000E-04 2.52862683E-02-8.54680140E-03 0.00000000E+00
 2 35 3.22524136E-05-1.65730147E-05 0.00000000E+00 1.43481013E-03-1.02194090E-03
 2 36 0.00000000E+00 1.95463658E-03-2.00214725E-03 4.63617275E-04 9.97706199E-04
 2 37 8.70439282E-04 0.00000000E+00 0.00000000E+00 3.59097034E-06 2.71803640E-03
 2 38 5.25991835E-03 3.06808162E-03 0.00000000E+00 0.00000000E+00 1.13009624E-03
 2 39 0.00000000E+00 4.99695462E-04 1.19040392E-04-1.46516457E-04-5.54296860E-05
 2 40 0.00000000E+00-6.35012993E-05 0.00000000E+00-5.96044714E-04 0.00000000E+00
 2 41 1.90709088E-04-3.55151627E-03-4.41276366E-04 0.00000000E+00-1.10615708E-04
 2 42 3.57834486E-07 0.00000000E+00-1.47088036E-03-1.39907235E-04 1.33868370E-04
 2 43-1.98637681E-04 1.31032531E-04 0.00000000E+00 0.00000000E+00-2.98064230E-05
 2 44 1.45268324E-04-4.24012033E-03-5.46752181E-05 0.00000000E+00 1.98597679E-04
 2 45-2.18148143E-05 0.00000000E+00 1.75105099E-03-7.05430917E-05 8.39147162E-05
 2 46-2.99678846E-04 1.42257503E-04 0.00000000E+00 0.00000000E+00-2.44685634E-05
 2 47-5.31494949E-01 3.05364943E-04-2.52772421E-02 8.54604099E-03 0.00000000E+00
 2 48 3.23072435E-05-1.67250202E-05 0.00000000E+00 1.43413672E-03-1.02164595E-03
 2 49 0.00000000E+00 1.95406085E-03-2.00234002E-03-4.63534857E-04-9.97417196E-04
 2 50-8.70170132E-04 0.00000000E+00 0.00000000E+00-3.57757568E-06-2.71739540E-03
 2 51-5.25820592E-03-3.06787964E-03 0.00000000E+00 0.00000000E+00-1.13012048E-03
 2 52 0.00000000E+00 4.99627045E-04 1.18954754E-04-1.46435551E-04-5.55280717E-05
 2 53 0.00000000E+00-6.35544181E-05 0.00000000E+00-5.95906429E-04 0.00000000E+00
 2 54-3.13316048E-01 6.01736121E-04-1.40628836E-02-1.61414546E-03 0.00000000E+00
 2 55 2.28473119E-04 4.28081664E-05 0.00000000E+00-2.07172382E-03-1.56074067E-03
 2 56 0.00000000E+00-9.75355488E-04 3.17547426E-04-5.31900351E-05-4.08706354E-04
 2 57-3.20463130E-04 0.00000000E+00 0.00000000E+00 2.86585304E-05-4.96501935E-04
 2 58-2.40086919E-03 6.60654414E-04 0.00000000E+00 0.00000000E+00 4.94644644E-04
 2 59 0.00000000E+00 9.71348210E-05 1.75826432E-04 2.34409803E-04 2.97316185E-05
 2 60 0.00000000E+00 7.38369583E-05 0.00000000E+00 2.81478358E-04 0.00000000E+00
 2 61-1.45165866E-04 4.23827053E-03 5.45519819E-05 0.00000000E+00 1.98537570E-04
 2 62-2.18208498E-05 0.00000000E+00 1.75029902E-03-7.05153046E-05-8.38498668E-05
 2 63 2.99575362E-04-1.42188312E-04 0.00000000E+00 0.00000000E+00 2.44792846E-05
 2 64-1.90711011E-04 3.55047140E-03 4.41293243E-04 0.00000000E+00-1.10558436E-04
 2 65 3.47321762E-07 0.00000000E+00-1.47042984E-03-1.39910363E-04-1.33869141E-04
 2 66 1.98548365E-04-1.31009651E-04 0.00000000E+00 0.00000000E+00 2.97901127E-05
 2 67-3.10305886E-01-1.00100931E-06-1.45792629E-02 2.08505155E-03 0.00000000E+00
 2 68-1.69562252E-05 4.00223053E-04 0.00000000E+00 8.16704096E-04-1.37885655E-03
 2 69 0.00000000E+00 5.10071195E-04 1.23530712E-04-1.84639233E-04-4.91838924E-04
 2 70-5.31845013E-04 0.00000000E+00 0.00000000E+00-4.72609625E-05-1.30689509E-03
 2 71-3.32840851E-03-2.25849463E-04 0.00000000E+00 0.00000000E+00-1.75469296E-04
 2 72 0.00000000E+00 2.60997574E-04 2.71898933E-04-8.48684638E-05 2.54952556E-04
 2 73 0.00000000E+00 1.86239669E-04 0.00000000E+00-1.66146278E-04 0.00000000E+00
 2 74-2.26759861E-02 2.26577660E-05-8.64408315E-04-1.15058520E-03 0.00000000E+00
 2 75 6.53769404E-05 2.33615868E-04 0.00000000E+00-1.77538882E-04-9.86053106E-04
 2 76 0.00000000E+00 1.08208439E-04 1.42387271E-04 3.21781832E-05 1.16457891E-05
 2 77-4.78544888E-06 0.00000000E+00 0.00000000E+00 3.57952813E-05 1.73382986E-04
 2 78-2.36974356E-04 1.05305998E-03 0.00000000E+00 0.00000000E+00-3.45086096E-04
 2 79 0.00000000E+00 3.32747824E-05 2.48768136E-04 5.94730465E-05 1.83164427E-04
 2 80 0.00000000E+00 1.32922258E-04 0.00000000E+00 1.43710098E-05 0.00000000E+00
 2 81-9.79223066E-05 3.02386092E-03-1.43968601E-05 0.00000000E+00 1.09547450E-04
 2 82 1.76374411E-05 0.00000000E+00 1.26603724E-03-4.99458675E-05-5.80512374E-05
 2 83 1.99010295E-04-9.56255441E-05 0.00000000E+00 0.00000000E+00-1.89406805E-05
 2 84 1.38076103E-05 4.25148574E-04-7.65701518E-06 0.00000000E+00-2.40712780E-05
 2 85 7.76216620E-06 0.00000000E+00-1.89618276E-04 1.30144435E-04 2.60367027E-06
 2 86 4.24364502E-05-1.48385091E-06 0.00000000E+00 0.00000000E+00-1.34194896E-05
 3  1 4.72745327E-05 1.09505531E-04-7.97748813E-05 0.00000000E+00 3.51727055E-05
 3  2-2.53673551E-05 0.00000000E+00-8.22096524E-05-1.67140229E-04 5.63192836E-05
 3  3 2.59802916E-05-7.19036849E-05 0.00000000E+00 0.00000000E+00 3.66837582E-05
 3  4 4.74984711E-05 1.08822467E-04-8.02223790E-05 0.00000000E+00-3.53385531E-05
 3  5 2.54606359E-05 0.00000000E+00 8.21158297E-05 1.68101994E-04 5.65887125E-05
 3  6 2.60900667E-05-7.21642113E-05 0.00000000E+00 0.00000000E+00 3.68935942E-05
 3  7 5.02265417E-02-7.22041857E-04 1.67356286E-03 3.82878398E-03 0.00000000E+00
 3  8 2.29123682E-04 4.79087185E-04 0.00000000E+00-1.43596479E-03-2.76481336E-03
 3  9 0.00000000E+00-1.92385558E-04 6.89332031E-04-7.98207645E-05 3.95268243E-05
 3 10-3.36706421E-05 0.00000000E+00 0.00000000E+00-9.53384919E-05-5.67343005E-04
 3 11-3.88671944E-04-1.74607606E-03 0.00000000E+00 0.00000000E+00-4.24363197E-05
 3 12 0.00000000E+00 2.53115861E-04 5.78732170E-04 1.78174268E-04 3.62984493E-04
 3 13 0.00000000E+00 2.85090887E-04 0.00000000E+00 1.21192103E-04 0.00000000E+00
 3 14 6.64724006E-01-7.74848384E-05 3.14630099E-02-7.44887808E-03 0.00000000E+00
 3 15 5.46624006E-05 5.79231226E-04 0.00000000E+00 1.27574092E-03-2.44603130E-03
 3 16 0.00000000E+00 1.86645216E-03 5.13242814E-05 4.75621223E-04 1.14475630E-03
 3 17 1.04537007E-03 0.00000000E+00 0.00000000E+00 5.35660599E-05 3.09909497E-03
 3 18 6.15437710E-03 3.57154328E-03 0.00000000E+00 0.00000000E+00 5.06120678E-04
 3 19 0.00000000E+00 5.64863911E-04 5.08434446E-04-1.29253845E-04 3.09788997E-04
 3 20 0.00000000E+00 2.60483208E-04 0.00000000E+00-5.43503433E-04 0.00000000E+00
 3 21 6.63442123E-05-1.00865187E-03-3.53105482E-04 0.00000000E+00-4.65870940E-05
 3 22 2.23271032E-05 0.00000000E+00-4.50389845E-04 2.61841605E-05 7.34151320E-05
 3 23-7.13894744E-05 6.48713044E-05 0.00000000E+00 0.00000000E+00-1.47052451E-05
 3 24 2.81518397E-04-5.21260924E-03 2.81413869E-05 0.00000000E+00 2.00077648E-04
 3 25 1.56099638E-06 0.00000000E+00 2.11567999E-03-1.91681128E-05 1.65287741E-04
 3 26-3.20491763E-04 1.92924249E-04 0.00000000E+00 0.00000000E+00 7.50756480E-06
 3 27 1.20573896E-01 3.52274511E-04 5.49220688E-03 1.51438199E-03 0.00000000E+00
 3 28 2.07980096E-05-4.59417490E-04 0.00000000E+00 3.53454662E-04 1.57931895E-03
 3 29 0.00000000E+00 5.77050583E-05-1.49572661E-03-3.65073855E-05 8.51877605E-05
 3 30 1.56538329E-04 0.00000000E+00 0.00000000E+00 5.64423684E-05 1.72709737E-04
 3 31 8.34141875E-04-4.16837261E-04 0.00000000E+00 0.00000000E+00 3.23473612E-05
 3 32 0.00000000E+00-4.29234314E-05-3.42135312E-04 3.85224350E-06-2.80248915E-04
 3 33 0.00000000E+00-2.36877659E-04 0.00000000E+00-4.06223744E-05 0.00000000E+00
 3 34-1.30384658E-01 3.55944775E-04-6.09279774E-03 1.15296020E-03 0.00000000E+00
 3 35 6.33395409E-05-2.78001841E-04 0.00000000E+00-8.52056103E-04 1.12399402E-03
 3 36 0.00000000E+00-6.96742966E-04-6.50303196E-05-8.84549873E-05-2.60836088E-04
 3 37-1.41835876E-04 0.00000000E+00 0.00000000E+00-4.10826440E-05-5.28372845E-04
 3 38-5.72988103E-04-1.58250060E-03 0.00000000E+00 0.00000000E+00-8.30751698E-05
 3 39 0.00000000E+00 1.05579473E-04-1.95699005E-04 7.19307064E-05-1.96063535E-04
 3 40 0.00000000E+00-1.29345867E-04 0.00000000E+00 1.82127867E-04 0.00000000E+00
 3 41 1.03584669E-04-9.03641390E-04 5.94294183E-06 0.00000000E+00-7.31632251E-06
 3 42-2.15625143E-05 0.00000000E+00-3.26570012E-04 1.15927048E-04 6.10404717E-05
 3 43-2.46798207E-05 4.25197167E-05 0.00000000E+00 0.00000000E+00 5.25414277E-05
 3 44-1.49312979E-04 9.38654314E-04 1.48227199E-04 0.00000000E+00-1.06730699E-05
 3 45-2.32028436E-05 0.00000000E+00-3.55540549E-04 2.84270966E-05-9.20272665E-05
 3 46 1.79948673E-05-6.30452615E-05 0.00000000E+00 0.00000000E+00-5.72379246E-06
 3 47-1.32087591E-01 3.56089160E-04-6.17547671E-03 1.19818663E-03 0.00000000E+00
 3 48-6.29022267E-05 2.78254668E-04 0.00000000E+00 8.55070712E-04-1.12336007E-03
 3 49 0.00000000E+00 7.07723938E-04 5.94977286E-05-9.02404743E-05-2.64169855E-04
 3 50-1.44425367E-04 0.00000000E+00 0.00000000E+00-4.11111950E-05-5.38749939E-04
 3 51-5.90907852E-04-1.60053661E-03 0.00000000E+00 0.00000000E+00-8.24736557E-05
 3 52 0.00000000E+00-1.03905798E-04 1.95896822E-04-7.20967420E-05 1.96287178E-04
 3 53 0.00000000E+00 1.29280679E-04 0.00000000E+00-1.83914625E-04 0.00000000E+00
 3 54 1.20355292E-01 3.55284082E-04 5.48274341E-03 1.51251399E-03 0.00000000E+00
 3 55-2.05894712E-05 4.61517524E-04 0.00000000E+00-3.57298162E-04-1.58875452E-03
 3 56 0.00000000E+00-5.92094756E-05 1.50828985E-03-3.68404601E-05 8.44852845E-05
 3 57 1.56487060E-04 0.00000000E+00 0.00000000E+00 5.66940434E-05 1.72288849E-04
 3 58 8.34361025E-04-4.20738461E-04 0.00000000E+00 0.00000000E+00 3.22924825E-05
 3 59 0.00000000E+00 4.31866557E-05 3.43941218E-04-3.49945532E-06 2.81404107E-04
 3 60 0.00000000E+00 2.38139331E-04 0.00000000E+00 4.17324166E-05 0.00000000E+00
 3 61-1.50160914E-04 9.52222925E-04 1.48498684E-04 0.00000000E+00 1.11106157E-05
 3 62 2.31753861E-05 0.00000000E+00 3.60701388E-04-2.76073184E-05-9.24754804E-05
 3 63 1.86028605E-05-6.34818812E-05 0.00000000E+00 0.00000000E+00-5.50096039E-06
 3 64 1.03472670E-04-9.02170822E-04 6.69329779E-06 0.00000000E+00 7.15959673E-06
 3 65 2.16601451E-05 0.00000000E+00 3.25934732E-04-1.16588717E-04 6.09387411E-05
 3 66-2.45284298E-05 4.24002435E-05 0.00000000E+00 0.00000000E+00 5.28326671E-05
 3 67 6.67344219E-01-7.74512497E-05 3.15876978E-02-7.48313271E-03 0.00000000E+00
 3 68-5.50893345E-05-5.81120166E-04 0.00000000E+00-1.27951212E-03 2.45461233E-03
 3 69 0.00000000E+00-1.87505795E-03-5.17208482E-05 4.77690647E-04 1.14939634E-03
 3 70 1.04949793E-03 0.00000000E+00 0.00000000E+00 5.36752653E-05 3.11185299E-03
 3 71 6.17936424E-03 3.58927391E-03 0.00000000E+00 0.00000000E+00 5.07634457E-04
 3 72 0.00000000E+00-5.67353220E-04-5.10220169E-04 1.29620507E-04-3.10655108E-04
 3 73 0.00000000E+00-2.61300319E-04 0.00000000E+00 5.45919591E-04 0.00000000E+00
 3 74 5.04271464E-02-7.25793957E-04 1.68007030E-03 3.84560754E-03 0.00000000E+00
 3 75-2.30075753E-04-4.80940450E-04 0.00000000E+00 1.44219273E-03 2.77655190E-03
 3 76 0.00000000E+00 1.93191521E-04-6.92054671E-04-8.01123360E-05 3.98000276E-05
 3 77-3.38170768E-05 0.00000000E+00 0.00000000E+00-9.57538554E-05-5.69657160E-04
 3 78-3.91306034E-04-1.75249451E-03 0.00000000E+00 0.00000000E+00-4.33169471E-05
 3 79 0.00000000E+00-2.54263465E-04-5.80951777E-04-1.78897309E-04-3.64370081E-04
 3 80 0.00000000E+00-2.86212544E-04 0.00000000E+00-1.21735579E-04 0.00000000E+00
 3 81 2.82663692E-04-5.23294151E-03 2.83939775E-05 0.00000000E+00-2.00844576E-04
 3 82-1.50876227E-06 0.00000000E+00-2.12371917E-03 1.89550091E-05 1.65947792E-04
 3 83-3.21649390E-04 1.93645628E-04 0.00000000E+00 0.00000000E+00 7.47221777E-06
 3 84 6.67220568E-05-1.01225885E-03-3.54879005E-04 0.00000000E+00 4.67449658E-05
 3 85-2.24280129E-05 0.00000000E+00 4.52048714E-04-2.60306196E-05 7.37984316E-05
 3 86-7.16278797E-05 6.51848909E-05 0.00000000E+00 0.00000000E+00-1.48047240E-05
 4  1 5.09492088E-05-1.24326977E-04-1.07696611E-04 0.00000000E+00 3.76761547E-05
 4  2-2.25434666E-05 0.00000000E+00 7.00326447E-06-2.13722611E-04 6.13778309E-05
 4  3 2.58087240E-05-6.06972954E-05 0.00000000E+00 0.00000000E+00 4.70124611E-05
 4  4-5.07379578E-05 1.24730167E-04 1.07330347E-04 0.00000000E+00 3.75161443E-05
 4  5-2.24262845E-05 0.00000000E+00 7.35771500E-06-2.12931824E-04-6.11241345E-05
 4  6-2.56914357E-05 6.03688280E-05 0.00000000E+00 0.00000000E+00-4.68440720E-05
 4  7 4.57636965E-02-8.39633205E-04 1.48764978E-03 3.81558394E-03 0.00000000E+00
 4  8 2.15880491E-04 4.28421879E-04 0.00000000E+00-1.40108929E-03-2.68747970E-03
 4  9 0.00000000E+00-1.67353179E-04 6.10069417E-04-6.64762181E-05 6.01148495E-05
 4 10-3.12344317E-05 0.00000000E+00 0.00000000E+00-9.53930208E-05-5.27702091E-04
 4 11-5.60416129E-04-1.50516687E-03 0.00000000E+00 0.00000000E+00-1.70553654E-04
 4 12 0.00000000E+00 2.55471477E-04 5.12586220E-04 1.64993527E-04 3.21201790E-04
 4 13 0.00000000E+00 2.58539511E-04 0.00000000E+00 1.23853760E-04 0.00000000E+00
 4 14 6.00820294E-01 1.14163076E-05 2.85747127E-02-7.67463619E-03 0.00000000E+00
 4 15 9.29380125E-05 4.54974897E-04 0.00000000E+00 8.84347430E-04-2.04289495E-03
 4 16 0.00000000E+00 1.93605020E-03 1.14560775E-04 4.67503915E-04 1.05756606E-03
 4 17 9.47980000E-04 0.00000000E+00 0.00000000E+00 3.14822190E-05 2.90440611E-03
 4 18 5.74791094E-03 3.91336764E-03 0.00000000E+00 0.00000000E+00 3.65849133E-04
 4 19 0.00000000E+00 5.68361858E-04 4.22323057E-04-8.63504360E-05 2.16609811E-04
 4 20 0.00000000E+00 2.00211511E-04 0.00000000E+00-5.43031252E-04 0.00000000E+00
 4 21 8.12301009E-05-8.37300688E-04-3.91799891E-04 0.00000000E+00-3.75846305E-05
 4 22 2.32413325E-05 0.00000000E+00-3.85040437E-04-2.38938351E-05 8.40788775E-05
 4 23-5.69318178E-05 6.94444268E-05 0.00000000E+00 0.00000000E+00-2.05645734E-05
 4 24 2.60778316E-04-4.70545055E-03 5.55852257E-05 0.00000000E+00 1.77147523E-04
 4 25-9.45282919E-06 0.00000000E+00 1.86510175E-03 4.54090706E-05 1.50597311E-04
 4 26-2.69753139E-04 1.66540959E-04 0.00000000E+00 0.00000000E+00-7.25316707E-06
 4 27-1.71804361E-02 6.30748433E-04-6.64715299E-04-4.40678865E-04 0.00000000E+00
 4 28-3.30918974E-05-4.65832566E-04 0.00000000E+00 7.00446789E-04 1.98710002E-03
 4 29 0.00000000E+00 2.38844166E-04-2.75883800E-03-6.19100936E-05-1.09786234E-04
 4 30 2.77466251E-05 0.00000000E+00 0.00000000E+00 5.36063243E-05-6.55777860E-06
 4 31 3.04876942E-04-8.30509782E-04 0.00000000E+00 0.00000000E+00-4.72950664E-05
 4 32 0.00000000E+00-6.23707305E-05-3.90582369E-04-6.18233824E-05-2.55174960E-04
 4 33 0.00000000E+00-2.76094181E-04 0.00000000E+00-2.18184955E-04 0.00000000E+00
 4 34-3.41572057E-01 2.93089608E-07-1.66325965E-02 9.50796395E-03 0.00000000E+00
 4 35-9.82900459E-05-6.39998912E-05 0.00000000E+00-5.53852423E-04-1.76443697E-04
 4 36 0.00000000E+00-2.29703509E-03 1.07560786E-03-3.66953502E-04-6.73213039E-04
 4 37-5.17719967E-04 0.00000000E+00 0.00000000E+00-7.25836423E-06-2.13104443E-03
 4 38-3.63892977E-03-3.81488816E-03 0.00000000E+00 0.00000000E+00 2.09242367E-04
 4 39 0.00000000E+00-3.42501935E-04-4.36768101E-05 2.42277788E-05-5.85781802E-05
 4 40 0.00000000E+00 6.47878288E-06 0.00000000E+00 3.53842451E-04 0.00000000E+00
 4 41-7.06042656E-06 1.14155711E-05 1.37644178E-04 0.00000000E+00 2.46500791E-05
 4 42-2.13651860E-05 0.00000000E+00 1.16745589E-05 1.35524351E-04-1.06017628E-05
 4 43 1.61215485E-05-1.45399593E-05 0.00000000E+00 0.00000000E+00 6.24938377E-05
 4 44-1.77247818E-04 2.72138200E-03 4.97358160E-05 0.00000000E+00-8.32871662E-05
 4 45 4.07173107E-06 0.00000000E+00-1.02540661E-03-1.85172281E-04-9.27045369E-05
 4 46 1.14399175E-04-8.67293391E-05 0.00000000E+00 0.00000000E+00 4.70861172E-05
 4 47 3.40923159E-01 1.28983841E-06 1.66022430E-02-9.50226598E-03 0.00000000E+00
 4 48-9.85757934E-05-6.26910035E-05 0.00000000E+00-5.49910701E-04-1.81694256E-04
 4 49 0.00000000E+00-2.29373302E-03 1.07597973E-03 3.66516734E-04 6.71941692E-04
 4 50 5.16985688E-04 0.00000000E+00 0.00000000E+00 7.06825591E-06 2.12840805E-03
 4 51 3.63567286E-03 3.80762982E-03 0.00000000E+00 0.00000000E+00-2.09604454E-04
 4 52 0.00000000E+00-3.42923646E-04-4.27440839E-05 2.38896623E-05-5.76613639E-05
 4 53 0.00000000E+00 7.08148608E-06 0.00000000E+00 3.52985331E-04 0.00000000E+00
 4 54 1.77119533E-02-6.29095216E-04 6.88974146E-04 4.47250609E-04 0.00000000E+00
 4 55-3.31685243E-05-4.63736934E-04 0.00000000E+00 6.98730304E-04 1.97996547E-03
 4 56 0.00000000E+00 2.38577521E-04-2.75195944E-03 6.17472253E-05 1.10157926E-04
 4 57-2.70518969E-05 0.00000000E+00 0.00000000E+00-5.33521190E-05 7.35565383E-06
 4 58-3.01234561E-04 8.28933035E-04 0.00000000E+00 0.00000000E+00 4.73551468E-05
 4 59 0.00000000E+00-6.21763835E-05-3.89026696E-04-6.18214747E-05-2.53895156E-04
 4 60 0.00000000E+00-2.75006794E-04 0.00000000E+00-2.17990365E-04 0.00000000E+00
 4 61 1.76551358E-04-2.71654670E-03-4.90610902E-05 0.00000000E+00-8.32191594E-05
 4 62 4.17722200E-06 0.00000000E+00-1.02356161E-03-1.85308103E-04 9.22765317E-05
 4 63-1.14283685E-04 8.64277545E-05 0.00000000E+00 0.00000000E+00-4.71166856E-05
 4 64 7.53409256E-06-1.53148023E-05-1.37592082E-04 0.00000000E+00 2.46714831E-05
 4 65-2.12660653E-05 0.00000000E+00 1.30662069E-05 1.35010750E-04 1.08795479E-05
 4 66-1.62133613E-05 1.47275270E-05 0.00000000E+00 0.00000000E+00-6.22547193E-05
 4 67-5.97812675E-01-1.18137151E-05-2.84323632E-02 7.64089923E-03 0.00000000E+00
 4 68 9.26931178E-05 4.52327865E-04 0.00000000E+00 8.78531127E-04-2.03153442E-03
 4 69 0.00000000E+00 1.92757587E-03 1.14367861E-04-4.65353886E-04-1.05238139E-03
 4 70-9.43256567E-04 0.00000000E+00 0.00000000E+00-3.12226789E-05-2.89038717E-03
 4 71-5.72015215E-03-3.89716194E-03 0.00000000E+00 0.00000000E+00-3.63403728E-04
 4 72 0.00000000E+00 5.65813750E-04 4.19986198E-04-8.57634655E-05 2.15186576E-04
 4 73 0.00000000E+00 1.99012090E-04 0.00000000E+00-5.40560591E-04 0.00000000E+00
 4 74-4.55369798E-02 8.36299776E-04-1.48011742E-03-3.79820272E-03 0.00000000E+00
 4 75 2.14833896E-04 4.26243123E-04 0.00000000E+00-1.39445825E-03-2.67478524E-03
 4 76 0.00000000E+00-1.66456901E-04 6.06962272E-04 6.61180498E-05-5.99303750E-05
 4 77 3.10806808E-05 0.00000000E+00 0.00000000E+00 9.49551729E-05 5.25115526E-04
 4 78 5.58683942E-04 1.49726262E-03 0.00000000E+00 0.00000000E+00 1.70289566E-04
 4 79 0.00000000E+00 2.54313386E-04 5.09938899E-04 1.64179272E-04 3.19550883E-04
 4 80 0.00000000E+00 2.57243661E-04 0.00000000E+00 1.23291741E-04 0.00000000E+00
 4 81-2.59502111E-04 4.68192131E-03-5.54725627E-05 0.00000000E+00 1.76241065E-04
 4 82-9.46267967E-06 0.00000000E+00 1.85554850E-03 4.54984607E-05-1.49846641E-04
 4 83 2.68303051E-04-1.65665943E-04 0.00000000E+00 0.00000000E+00 7.28262248E-06
 4 84-8.09288889E-05 8.32636924E-04 3.90180014E-04 0.00000000E+00-3.73710742E-05
 4 85 2.31388638E-05 0.00000000E+00-3.82957302E-04-2.39966197E-05-8.37441716E-05
 4 86 5.66039647E-05-6.91487167E-05 0.00000000E+00 0.00000000E+00 2.04968155E-05
 5  1-1.56850881E-05 1.18164968E-03-1.26792369E-05 0.00000000E+00-1.48773562E-05
 5  2 9.05896637E-06 0.00000000E+00-2.70503045E-04 4.76606345E-04-2.40390733E-05
 5  3-5.56124658E-06 4.88517232E-05 0.00000000E+00 0.00000000E+00-2.82930188E-05
 5  4-1.56070401E-05 1.17847993E-03-1.26916417E-05 0.00000000E+00 1.48682300E-05
 5  5-9.05087156E-06 0.00000000E+00 2.69881957E-04-4.75380121E-04-2.39696804E-05
 5  6-5.51093011E-06 4.87436034E-05 0.00000000E+00 0.00000000E+00-2.82497490E-05
 5  7-1.46090287E-02 3.40190111E-04-5.49049304E-04-1.22889957E-03 0.00000000E+00
 5  8-5.05960548E-05-1.12200722E-04 0.00000000E+00 2.87238030E-04 1.39611047E-03
 5  9 0.00000000E+00 2.23582361E-04-3.62378903E-04-5.53643936E-06-4.42250899E-05
 5 10 2.83690386E-05 0.00000000E+00 0.00000000E+00 1.65710275E-05 2.07668901E-04